NAME: tsp35_16
COMMENT: 35-tsp problem (Padberg/Rinaldi)
TYPE: TSP
DIMENSION: 35
EDGE_WEIGHT_TYPE : EUC_2D
NODE_COORD_SECTION
1 40 22
2 21 20
3 11 28
4 31 10
5 14 20
6 2 23
7 36 22
8 29 12
9 19 5
10 15 24
11 33 0
12 26 14
13 29 30
14 15 25
15 24 16
16 28 3
17 28 17
18 8 3
19 3 28
20 7 22
21 38 3
22 5 26
23 11 37
24 7 25
25 18 8
26 11 28
27 21 30
28 23 11
29 25 30
30 39 11
31 6 38
32 40 38
33 31 35
34 3 3
35 37 11
